c CNF file generated from BLIF2CNF script.
c Original BLIF file was -
p cnf 41 122
1 -6 0
2 -6 0
3 -6 0
4 -6 0
6 -1 -2 -3 -4  0
-6 5 0
-5 6  0
-1 -8 0
2 -8 0
3 -8 0
4 -8 0
8 1 -2 -3 -4  0
-8 7 0
-7 8  0
1 -10 0
-2 -10 0
3 -10 0
4 -10 0
10 -1 2 -3 -4  0
-10 9 0
-9 10  0
-1 -12 0
-2 -12 0
3 -12 0
4 -12 0
12 1 2 -3 -4  0
-12 11 0
-11 12  0
1 -14 0
2 -14 0
-3 -14 0
4 -14 0
14 -1 -2 3 -4  0
-14 13 0
-13 14  0
-1 -16 0
2 -16 0
-3 -16 0
4 -16 0
16 1 -2 3 -4  0
-16 15 0
-15 16  0
1 -18 0
-2 -18 0
-3 -18 0
4 -18 0
18 -1 2 3 -4  0
-18 17 0
-17 18  0
-1 -20 0
-2 -20 0
-3 -20 0
4 -20 0
20 1 2 3 -4  0
-20 19 0
-19 20  0
1 -23 0
2 -23 0
3 -23 0
21 -23 0
23 -1 -2 -3 -21  0
-23 22 0
-22 23  0
-1 -25 0
2 -25 0
3 -25 0
21 -25 0
25 1 -2 -3 -21  0
-25 24 0
-24 25  0
1 -27 0
-2 -27 0
3 -27 0
21 -27 0
27 -1 2 -3 -21  0
-27 26 0
-26 27  0
-1 -29 0
-2 -29 0
3 -29 0
21 -29 0
29 1 2 -3 -21  0
-29 28 0
-28 29  0
1 -31 0
2 -31 0
-3 -31 0
21 -31 0
31 -1 -2 3 -21  0
-31 30 0
-30 31  0
-1 -33 0
2 -33 0
-3 -33 0
21 -33 0
33 1 -2 3 -21  0
-33 32 0
-32 33  0
1 -35 0
-2 -35 0
-3 -35 0
21 -35 0
35 -1 2 3 -21  0
-35 34 0
-34 35  0
-1 -37 0
-2 -37 0
-3 -37 0
21 -37 0
37 1 2 3 -21  0
-37 36 0
-36 37  0
-38 -40 0
39 -40 0
40 38 -39  0
-40 21 0
-21 40  0
38 -41 0
39 -41 0
41 -38 -39  0
-41 4 0
-4 41  0
